Log file: C:\Users\user\robust_bilevel_network_games\true_dro\S20_beta0p1_wmax\log_abilene_S20_20260418_012507515_wmax.txt
Started: 2026-04-18T01:25:07.516

======================================================================
============================================================
ABILENE Network Summary
============================================================
Number of nodes: 12
Number of arcs (incl. dummy): 31
Number of regular arcs: 30
Number of interdictable arcs: 22
Source node: s (STTLng)
Sink node: t (NYCMng)
Node-incidence matrix N dimensions: (11, 31)

Sparsity Information:
  Arc-arc adjacency: 268 / 900 pairs (70.2% sparse)
  Node-arc incidence: 56 / 330 pairs (83.0% sparse)

First 15 arcs:
  Arc 1: ("ATLAM5", "ATLAng") [Interdictable: ✓]
  Arc 2: ("ATLAng", "ATLAM5") [Interdictable: ✓]
  Arc 3: ("ATLAng", "HSTNng") [Interdictable: ✓]
  Arc 4: ("ATLAng", "IPLSng") [Interdictable: ✓]
  Arc 5: ("ATLAng", "WASHng") [Interdictable: ✓]
  Arc 6: ("CHINng", "IPLSng") [Interdictable: ✓]
  Arc 7: ("CHINng", "t") [Interdictable: ✗]
  Arc 8: ("DNVRng", "KSCYng") [Interdictable: ✓]
  Arc 9: ("DNVRng", "SNVAng") [Interdictable: ✓]
  Arc 10: ("DNVRng", "s") [Interdictable: ✗]
  Arc 11: ("HSTNng", "ATLAng") [Interdictable: ✓]
  Arc 12: ("HSTNng", "KSCYng") [Interdictable: ✓]
  Arc 13: ("HSTNng", "LOSAng") [Interdictable: ✓]
  Arc 14: ("IPLSng", "ATLAng") [Interdictable: ✓]
  Arc 15: ("IPLSng", "CHINng") [Interdictable: ✓]
============================================================
  |A|=30, S=20, γ=2, w=25.6333 (=max cap), λU=2.0
  ε̂=0.84, ε̃=0.84
INSTANCE: abilene (S=20, β=0.1, γ=2, w=25.6333, ε̂=0.84, ε̃=0.84)
  Settings: MW cuts, mincut VI, inexact=false, mini-benders, w=max(cap)
======================================================================

----------------------------------------
VI-only OMP diagnostic (no Benders cuts)
Set parameter Username
Set parameter LicenseID to value 2742039
Academic license - for non-commercial use only - expires 2026-11-20
Set parameter OutputFlag to value 1
Set parameter OutputFlag to value 1
Gurobi Optimizer version 13.0.0 build v13.0.0rc1 (win64 - Windows 10.0 (19045.2))

CPU model: AMD Ryzen 9 5900X 12-Core Processor, instruction set [SSE2|AVX|AVX2]
Thread count: 12 physical cores, 24 logical processors, using up to 24 threads

Optimize a model with 2430 rows, 1451 columns and 7019 nonzeros (Min)
Model fingerprint: 0x1eba5213
Model has 1 linear objective coefficients
Variable types: 1421 continuous, 30 integer (30 binary)
Coefficient statistics:
  Matrix range     [1e-02, 1e+00]
  Objective range  [1e+00, 1e+00]
  Bounds range     [1e+00, 1e+04]
  RHS range        [1e+00, 2e+00]
Found heuristic solution: objective 32.5372879
Presolve removed 1349 rows and 553 columns
Presolve time: 0.00s
Presolved: 1081 rows, 898 columns, 2518 nonzeros
Found heuristic solution: objective 32.5372880
Variable types: 880 continuous, 18 integer (18 binary)

Root relaxation: objective 3.552714e-15, 204 iterations, 0.00 seconds (0.00 work units)

    Nodes    |    Current Node    |     Objective Bounds      |     Work
 Expl Unexpl |  Obj  Depth IntInf | Incumbent    BestBd   Gap | It/Node Time

*    0     0               0      -0.0000000   -0.00000  0.00%     -    0s

Explored 1 nodes (204 simplex iterations) in 0.01 seconds (0.01 work units)
Thread count was 24 (of 24 available processors)

Solution count 2: -1.05471e-15 32.5373 

Optimal solution found (tolerance 1.00e-04)
Best objective -1.845745778439e-15, best bound -1.845745778439e-15, gap 0.0000%

User-callback calls 41, time in user-callback 0.00 sec
  VI-only LB = -0.000000, x = [0, 0, 0, 0, 1, 0, 0, 0, 0, 0, 0, 0, 0, 0, 1, 0, 0, 0, 0, 0, 0, 0, 0, 0, 0, 0, 0, 0, 0, 0]
----------------------------------------

======================================================================
True-DRO Benders
======================================================================
Set parameter Username
Set parameter LicenseID to value 2742039
Academic license - for non-commercial use only - expires 2026-11-20
Set parameter Username
Set parameter LicenseID to value 2742039
Academic license - for non-commercial use only - expires 2026-11-20
Set parameter Username
Set parameter LicenseID to value 2742039
Academic license - for non-commercial use only - expires 2026-11-20
Set parameter Username
Set parameter LicenseID to value 2742039
Academic license - for non-commercial use only - expires 2026-11-20
Set parameter Username
Set parameter LicenseID to value 2742039
Academic license - for non-commercial use only - expires 2026-11-20
Set parameter Username
Set parameter LicenseID to value 2742039
Academic license - for non-commercial use only - expires 2026-11-20

=== True-DRO Benders iter 1 ===
  OMP: t₀=-0.000000, UB=Inf, gap=NaN, x=[0, 0, 0, 0, 1, 0, 0, 0, 0, 0, 0, 0, 0, 0, 1, 0, 0, 0, 0, 0, 0, 0, 0, 0, 0, 0, 0, 0, 0, 0] (0.014s)
  Sub: Z₀=22.862454 [LOCAL], α=[0.000,0.000,0.000,0.000,10.223,0.000,0.000,1.553,0.000,0.000,0.000,0.000,0.000,0.000,12.885,0.000,0.000,0.000,0.000,0.972,0.000,0.000,0.000,0.000,0.000,0.000,0.000,0.000,0.000,0.000]
  Iter 1: LB=-0.000000  UB=Inf  gap=NaN
  Cut: intercept=-576.755456, π_x_range=[-422.0848, 303.7305]
  Mini-Benders[1] (mw): LB=0.000000, Z₀(α*)=-12.503639, intercept=9.721366
  Mini-Benders[2] (mw): LB=0.000000, Z₀(α*)=-12.503639, intercept=9.721366
  Mini-Benders[3]: LB stagnated, break
  α-step: Z₀=10.194042, α=[0.000,0.000,0.000,0.000,0.505,0.000,0.000,9.177,0.000,0.000,0.426,0.000,0.000,0.000,7.498,0.000,0.000,0.000,7.010,1.017,0.000,0.000,0.000,0.000,0.000,0.000,0.000,0.000,0.000,0.000]
  Alt-Benders[1] (mw): LB=0.000000, Z₀(α*)=3.902236, intercept=30.610509
  Alt-Benders[2] (mw): LB=2.003208, Z₀(α*)=12.760604, intercept=13.319823
  Alt-Benders[3] (mw): LB=2.163630, Z₀(α*)=12.075883, intercept=25.227763
  Alt-Benders[4] (mw): LB=3.902235, Z₀(α*)=3.902236, intercept=30.610509
  Alt-Benders[5] (mw): LB=3.902235, Z₀(α*)=3.902236, intercept=30.610509
  OMP re-solve: 0.026s

=== True-DRO Benders iter 2 ===
  OMP: t₀=3.902235, UB=Inf, gap=NaN, x=[0, 0, 0, 0, 0, 0, 0, 0, 0, 0, 1, 0, 0, 0, 0, 0, 0, 0, 1, 0, 0, 0, 0, 0, 0, 0, 0, 0, 0, 0] (0.000s)
  Sub: Z₀=22.763171 [LOCAL], α=[0.000,0.000,0.000,0.000,0.000,0.000,0.000,1.276,0.000,0.000,12.124,0.000,0.000,0.000,0.000,0.000,0.000,0.000,12.021,0.212,0.000,0.000,0.000,0.000,0.000,0.000,0.000,0.000,0.000,0.000]
  Iter 2: LB=3.902235  UB=Inf  gap=NaN
  Cut: intercept=-563.787267, π_x_range=[-423.8331, 296.4134]
  Mini-Benders[1] (mw): LB=4.852941, Z₀(α*)=-11.401514, intercept=8.116258
  Mini-Benders[2] (mw): LB=4.852941, Z₀(α*)=-11.401514, intercept=8.116258
  Mini-Benders[3] (mw): LB=4.852941, Z₀(α*)=-11.401514, intercept=8.116258
  Mini-Benders[4]: LB stagnated, break
  α-step: Z₀=15.100283, α=[0.000,0.000,0.000,0.000,3.641,0.000,0.000,6.553,0.000,0.000,0.000,0.000,0.000,0.000,7.600,0.000,0.000,0.000,7.372,0.468,0.000,0.000,0.000,0.000,0.000,0.000,0.000,0.000,0.000,0.000]
  Alt-Benders[1] (mw): LB=6.775086, Z₀(α*)=16.748600, intercept=16.051295
  Alt-Benders[2] (mw): LB=7.086297, Z₀(α*)=0.831193, intercept=25.237363
  Alt-Benders[3] (mw): LB=7.086297, Z₀(α*)=0.831193, intercept=25.237363
  Alt-Benders[4] (mw): LB=7.086297, Z₀(α*)=0.831193, intercept=25.237363
  Alt-Benders[5]: LB stagnated, break
  OMP re-solve: 0.000s

=== True-DRO Benders iter 3 ===
  OMP: t₀=7.086297, UB=Inf, gap=NaN, x=[0, 0, 0, 0, 0, 0, 0, 1, 0, 0, 0, 0, 0, 0, 0, 0, 0, 0, 0, 0, 0, 0, 1, 0, 0, 0, 0, 0, 0, 0] (0.000s)
  Sub: Z₀=24.600376, α=[0.000,0.000,0.000,0.000,0.000,0.000,0.000,25.097,0.000,0.000,0.000,0.000,0.000,0.000,0.536,0.000,0.000,0.000,0.000,0.000,0.000,0.000,0.000,0.000,0.000,0.000,0.000,0.000,0.000,0.000]
  Iter 3: LB=7.086297  UB=24.600376  gap=7.12e-01
  Cut: intercept=-13.922123, π_x_range=[-69.0000, 22.4582]
  Sherali-Cut: intercept=-1.080185, π_x_range=[-32.0135, 14.9722]
  Mini-Benders[1] (mw): LB=8.454288, Z₀(α*)=-4.795419, intercept=3.871058
  Mini-Benders[2] (mw): LB=8.454288, Z₀(α*)=-4.795419, intercept=3.871058
  Mini-Benders[3] (mw): LB=8.454288, Z₀(α*)=-4.795419, intercept=3.871058
  Mini-Benders[4]: LB stagnated, break
  α-step: Z₀=22.701987, α=[0.000,0.000,0.000,0.000,0.519,0.000,0.000,7.549,0.000,0.000,0.000,0.000,0.000,0.000,6.990,0.000,0.000,0.000,9.271,0.000,0.000,0.000,1.304,0.000,0.000,0.000,0.000,0.000,0.000,0.000]
  Alt-Benders[1] (mw): LB=8.522171, Z₀(α*)=10.898077, intercept=22.145973
  Alt-Benders[2] (mw): LB=10.069162, Z₀(α*)=10.074651, intercept=23.042588
  Alt-Benders[3] (mw): LB=10.074649, Z₀(α*)=10.074651, intercept=23.042588
  Alt-Benders[4] (mw): LB=10.074649, Z₀(α*)=10.074651, intercept=23.042588
  Alt-Benders[5] (mw): LB=10.074649, Z₀(α*)=10.074651, intercept=23.042588
  OMP re-solve: 0.061s

=== True-DRO Benders iter 4 ===
  OMP: t₀=10.074649, UB=24.600376, gap=5.90e-01, x=[0, 0, 0, 0, 1, 0, 0, 0, 0, 0, 0, 0, 0, 1, 0, 0, 0, 0, 0, 0, 0, 0, 0, 0, 0, 0, 0, 0, 0, 0] (0.000s)
  Sub: Z₀=25.981923 [LOCAL], α=[0.000,0.000,0.000,0.000,7.897,0.000,0.000,3.297,0.000,0.000,0.000,0.000,0.000,0.000,12.566,0.000,0.000,0.000,0.000,1.873,0.000,0.000,0.000,0.000,0.000,0.000,0.000,0.000,0.000,0.000]
  Iter 4: LB=10.074649  UB=24.600376  gap=5.90e-01
  Cut: intercept=-565.438836, π_x_range=[-422.3358, 295.9101]
  Mini-Benders[1] (mw): LB=10.194042, Z₀(α*)=-7.463650, intercept=16.003939
  Mini-Benders[2] (mw): LB=10.194042, Z₀(α*)=-7.463650, intercept=16.003939
  Mini-Benders[3] (mw): LB=10.194042, Z₀(α*)=-7.463650, intercept=16.003939
  Mini-Benders[4]: LB stagnated, break
  α-step: Z₀=15.400724, α=[0.000,0.000,0.000,0.000,2.828,0.000,0.000,13.616,0.000,0.000,1.009,0.000,0.000,0.000,3.844,0.000,0.000,0.000,2.286,2.050,0.000,0.000,0.000,0.000,0.000,0.000,0.000,0.000,0.000,0.000]
  Alt-Benders[1] (mw): LB=10.770642, Z₀(α*)=11.465076, intercept=9.573084
  Alt-Benders[2] (mw): LB=11.276988, Z₀(α*)=20.176114, intercept=13.840091
  Alt-Benders[3] (mw): LB=11.284477, Z₀(α*)=0.434743, intercept=20.985095
  Alt-Benders[4] (mw): LB=11.284477, Z₀(α*)=0.434743, intercept=20.985095
  Alt-Benders[5] (mw): LB=11.284477, Z₀(α*)=0.434743, intercept=20.985095
  OMP re-solve: 0.049s

=== True-DRO Benders iter 5 ===
  OMP: t₀=11.284477, UB=24.600376, gap=5.41e-01, x=[0, 0, 0, 0, 0, 0, 0, 0, 0, 0, 1, 0, 0, 1, 0, 0, 0, 0, 0, 0, 0, 0, 0, 0, 0, 0, 0, 0, 0, 0] (0.001s)
  Sub: Z₀=26.035388 [LOCAL], α=[0.000,0.000,0.000,0.000,0.000,0.000,0.000,2.664,0.000,0.000,11.894,0.000,0.000,1.480,7.089,0.000,0.000,0.000,0.000,2.506,0.000,0.000,0.000,0.000,0.000,0.000,0.000,0.000,0.000,0.000]
  Iter 5: LB=11.284477  UB=24.600376  gap=5.41e-01
  Cut: intercept=-571.537107, π_x_range=[-421.8273, 298.8622]
  Mini-Benders[1] (mw): LB=11.465074, Z₀(α*)=1.784140, intercept=7.396405
  Mini-Benders[2] (mw): LB=11.465074, Z₀(α*)=1.784140, intercept=7.396405
  Mini-Benders[3] (mw): LB=11.465074, Z₀(α*)=1.784140, intercept=7.396405
  Mini-Benders[4]: LB stagnated, break
  α-step: Z₀=16.805560, α=[0.000,0.000,0.000,0.000,4.045,0.000,0.000,8.699,0.000,0.000,4.827,0.000,0.000,0.000,1.749,0.000,0.000,0.000,2.791,3.522,0.000,0.000,0.000,0.000,0.000,0.000,0.000,0.000,0.000,0.000]
  Alt-Benders[1] (mw): LB=11.831645, Z₀(α*)=4.211430, intercept=21.918975
  Alt-Benders[2] (mw): LB=11.831645, Z₀(α*)=4.211430, intercept=21.918975
  Alt-Benders[3] (mw): LB=11.831645, Z₀(α*)=4.211430, intercept=21.918975
  Alt-Benders[4]: LB stagnated, break
  OMP re-solve: 0.000s

=== True-DRO Benders iter 6 ===
  OMP: t₀=11.831645, UB=24.600376, gap=5.19e-01, x=[0, 0, 0, 0, 0, 0, 0, 0, 0, 0, 0, 0, 0, 0, 0, 0, 0, 1, 1, 0, 0, 0, 0, 0, 0, 0, 0, 0, 0, 0] (0.000s)
  Sub: Z₀=27.920529, α=[0.000,0.000,0.000,0.000,0.968,0.000,0.000,0.000,0.000,0.000,0.000,0.000,0.000,0.000,2.888,0.000,0.000,0.000,15.813,5.964,0.000,0.000,0.000,0.000,0.000,0.000,0.000,0.000,0.000,0.000]
  Iter 6: LB=11.831645  UB=24.600376  gap=5.19e-01
  Cut: intercept=4.449576, π_x_range=[-54.0023, 14.7805]
  Sherali-Cut: intercept=4.713257, π_x_range=[-34.4969, 14.6145]
  Mini-Benders[1] (mw): LB=12.760602, Z₀(α*)=-1.953687, intercept=-9.050181
  Mini-Benders[2] (mw): LB=12.760602, Z₀(α*)=-1.953687, intercept=-9.050181
  Mini-Benders[3] (mw): LB=12.760602, Z₀(α*)=-1.953687, intercept=-9.050181
  Mini-Benders[4]: LB stagnated, break
  α-step: Z₀=17.212163, α=[0.000,0.000,0.000,0.000,0.000,0.000,0.000,11.020,0.000,0.000,0.000,0.000,0.000,0.000,11.263,0.000,0.000,0.000,3.351,0.000,0.000,0.000,0.000,0.000,0.000,0.000,0.000,0.000,0.000,0.000]
  Alt-Benders[1] (mw): LB=13.024001, Z₀(α*)=5.257039, intercept=20.135676
  Alt-Benders[2] (mw): LB=13.024001, Z₀(α*)=5.257039, intercept=20.135676
  Alt-Benders[3] (mw): LB=13.024001, Z₀(α*)=5.257039, intercept=20.135676
  Alt-Benders[4]: LB stagnated, break
  OMP re-solve: 0.000s

=== True-DRO Benders iter 7 ===
  OMP: t₀=13.024001, UB=24.600376, gap=4.71e-01, x=[0, 0, 0, 0, 0, 0, 0, 0, 0, 0, 0, 0, 0, 0, 0, 0, 0, 0, 1, 1, 0, 0, 0, 0, 0, 0, 0, 0, 0, 0] (0.000s)
  Sub: Z₀=25.428351 [LOCAL], α=[0.000,0.000,0.000,0.000,0.033,0.000,0.000,4.822,0.000,0.000,2.134,0.000,0.000,0.000,2.822,0.000,0.000,0.000,10.183,5.639,0.000,0.000,0.000,0.000,0.000,0.000,0.000,0.000,0.000,0.000]
  Iter 7: LB=13.024001  UB=24.600376  gap=4.71e-01
  Cut: intercept=-567.803268, π_x_range=[-424.6304, 303.5791]
  Mini-Benders[1] (mw): LB=13.636358, Z₀(α*)=12.254415, intercept=6.481903
  Mini-Benders[2] (mw): LB=13.636358, Z₀(α*)=12.254415, intercept=6.481903
  Mini-Benders[3] (mw): LB=13.636358, Z₀(α*)=12.254415, intercept=6.481903
  Mini-Benders[4]: LB stagnated, break
  α-step: Z₀=25.248868, α=[0.000,0.000,0.000,0.000,0.000,0.000,0.000,7.011,0.000,0.000,0.000,0.000,0.000,0.000,7.187,0.000,0.000,0.000,11.435,0.000,0.000,0.000,0.000,0.000,0.000,0.000,0.000,0.000,0.000,0.000]
  Alt-Benders[1] (mw): LB=14.726493, Z₀(α*)=10.060843, intercept=25.796484
  Alt-Benders[2] (mw): LB=14.726493, Z₀(α*)=10.060843, intercept=25.796484
  Alt-Benders[3] (mw): LB=14.726493, Z₀(α*)=10.060843, intercept=25.796484
  Alt-Benders[4]: LB stagnated, break
  OMP re-solve: 0.000s

=== True-DRO Benders iter 8 ===
  OMP: t₀=14.726493, UB=24.600376, gap=4.01e-01, x=[0, 0, 0, 0, 1, 0, 0, 0, 0, 0, 1, 0, 0, 0, 0, 0, 0, 0, 0, 0, 0, 0, 0, 0, 0, 0, 0, 0, 0, 0] (0.000s)
  Sub: Z₀=24.048298 [LOCAL], α=[0.000,0.000,0.000,0.000,7.373,0.000,0.000,2.885,0.000,0.000,1.425,0.000,0.000,0.000,11.421,0.000,0.000,0.000,1.912,0.616,0.000,0.000,0.000,0.000,0.000,0.000,0.000,0.000,0.000,0.000]
  Iter 8: LB=14.726493  UB=24.600376  gap=4.01e-01
  Cut: intercept=-569.048233, π_x_range=[-424.3773, 296.9902]
  Mini-Benders[1] (mw): LB=14.869560, Z₀(α*)=-1.291118, intercept=15.044031
  Mini-Benders[2] (mw): LB=14.869560, Z₀(α*)=-1.291118, intercept=15.044031
  Mini-Benders[3] (mw): LB=14.869560, Z₀(α*)=-1.291118, intercept=15.044031
  Mini-Benders[4]: LB stagnated, break
  α-step: Z₀=15.779464, α=[0.000,0.000,0.000,0.000,0.000,0.000,0.000,8.188,0.000,0.000,0.000,0.000,0.000,0.000,6.477,0.000,0.000,0.000,5.670,5.297,0.000,0.000,0.000,0.000,0.000,0.000,0.000,0.000,0.000,0.000]
  Alt-Benders[1] (mw): LB=15.100283, Z₀(α*)=7.044061, intercept=12.601279
  Alt-Benders[2] (mw): LB=15.100283, Z₀(α*)=7.044061, intercept=12.601279
  Alt-Benders[3] (mw): LB=15.100283, Z₀(α*)=7.044061, intercept=12.601279
  Alt-Benders[4]: LB stagnated, break
  OMP re-solve: 0.000s

=== True-DRO Benders iter 9 ===
  OMP: t₀=15.100283, UB=24.600376, gap=3.86e-01, x=[0, 0, 0, 0, 1, 0, 0, 0, 0, 0, 0, 0, 0, 0, 0, 0, 0, 0, 1, 0, 0, 0, 0, 0, 0, 0, 0, 0, 0, 0] (0.000s)
  Sub: Z₀=22.403826, α=[0.000,0.000,0.000,0.000,8.962,0.000,0.000,0.179,0.000,0.000,1.832,0.000,0.000,0.000,7.817,0.000,0.000,0.000,6.843,0.000,0.000,0.000,0.000,0.000,0.000,0.000,0.000,0.000,0.000,0.000]
  Iter 9: LB=15.100283  UB=22.403826  gap=3.26e-01
  Cut: intercept=-4.515029, π_x_range=[-117.0000, 14.6145]
  Sherali-Cut: intercept=-4.515289, π_x_range=[-37.6910, 14.6143]
  Mini-Benders[1] (mw): LB=15.400724, Z₀(α*)=-18.291287, intercept=5.208346
  Mini-Benders[2] (mw): LB=15.400724, Z₀(α*)=-18.291287, intercept=5.208346
  Mini-Benders[3] (mw): LB=15.400724, Z₀(α*)=-18.291287, intercept=5.208346
  Mini-Benders[4]: LB stagnated, break
  α-step: Z₀=12.920120, α=[0.000,0.000,0.000,0.000,0.494,0.000,0.000,17.543,0.000,0.000,0.000,0.000,0.000,0.000,3.497,0.000,0.000,0.000,3.425,0.674,0.000,0.000,0.000,0.000,0.000,0.000,0.000,0.000,0.000,0.000]
  Alt-Benders[1] (mw): LB=15.400724, Z₀(α*)=18.216639, intercept=19.338459
  Alt-Benders[2] (mw): LB=15.779464, Z₀(α*)=20.447702, intercept=13.787567
  Alt-Benders[3] (mw): LB=15.923643, Z₀(α*)=-0.272475, intercept=17.980896
  Alt-Benders[4] (mw): LB=15.923643, Z₀(α*)=-0.272475, intercept=17.980896
  Alt-Benders[5] (mw): LB=15.923643, Z₀(α*)=-0.272475, intercept=17.980896
  OMP re-solve: 0.083s

=== True-DRO Benders iter 10 ===
  OMP: t₀=15.923643, UB=22.403826, gap=2.89e-01, x=[0, 0, 0, 0, 1, 0, 0, 0, 0, 0, 0, 0, 0, 0, 0, 0, 0, 1, 0, 0, 0, 0, 0, 0, 0, 0, 0, 0, 0, 0] (0.000s)
  Sub: Z₀=25.981923 [LOCAL], α=[0.000,0.000,0.000,0.000,9.965,0.000,0.000,0.805,0.000,0.000,0.000,0.000,0.000,0.000,10.498,0.000,0.000,0.000,0.000,4.365,0.000,0.000,0.000,0.000,0.000,0.000,0.000,0.000,0.000,0.000]
  Iter 10: LB=15.923643  UB=22.403826  gap=2.89e-01
  Cut: intercept=-567.532111, π_x_range=[-422.7049, 298.2278]
  Mini-Benders[1] (mw): LB=16.503912, Z₀(α*)=17.349762, intercept=12.789697
  Mini-Benders[2] (mw): LB=16.748598, Z₀(α*)=7.089545, intercept=10.391367
  Mini-Benders[3] (mw): LB=16.748598, Z₀(α*)=7.089545, intercept=10.391367
  Mini-Benders[4] (mw): LB=16.748598, Z₀(α*)=7.089545, intercept=10.391367
  Mini-Benders[5]: LB stagnated, break
  α-step: Z₀=21.265081, α=[0.000,0.000,0.000,0.000,10.806,0.000,0.000,5.511,0.000,0.000,0.000,0.000,0.000,0.000,4.685,0.000,0.000,0.000,4.612,0.000,0.000,0.000,0.019,0.000,0.000,0.000,0.000,0.000,0.000,0.000]
  Alt-Benders[1] (mw): LB=16.805560, Z₀(α*)=4.472139, intercept=8.550134
  Alt-Benders[2] (mw): LB=16.805560, Z₀(α*)=4.472139, intercept=8.550134
  Alt-Benders[3] (mw): LB=16.805560, Z₀(α*)=4.472139, intercept=8.550134
  Alt-Benders[4]: LB stagnated, break
  OMP re-solve: 0.000s

=== True-DRO Benders iter 11 ===
  OMP: t₀=16.805560, UB=22.403826, gap=2.50e-01, x=[0, 0, 0, 0, 0, 0, 0, 1, 0, 0, 0, 0, 0, 0, 0, 0, 0, 0, 1, 0, 0, 0, 0, 0, 0, 0, 0, 0, 0, 0] (0.000s)
  Sub: Z₀=22.351867 [LOCAL], α=[0.000,0.000,0.000,0.000,0.000,0.000,0.000,10.633,0.000,0.000,2.545,0.000,0.000,0.000,0.000,0.000,0.000,0.000,6.488,5.968,0.000,0.000,0.000,0.000,0.000,0.000,0.000,0.000,0.000,0.000]
  Iter 11: LB=16.805560  UB=22.403826  gap=2.50e-01
  Cut: intercept=-562.164541, π_x_range=[-424.5891, 295.1129]
  Mini-Benders[1] (mw): LB=17.119376, Z₀(α*)=2.493312, intercept=-0.935567
  Mini-Benders[2] (mw): LB=17.119376, Z₀(α*)=2.493312, intercept=-0.935567
  Mini-Benders[3] (mw): LB=17.119376, Z₀(α*)=2.493312, intercept=-0.935567
  Mini-Benders[4]: LB stagnated, break
  α-step: Z₀=26.230113, α=[0.000,0.000,0.000,0.000,0.000,0.000,0.000,9.251,0.000,0.000,0.000,0.000,0.000,0.000,8.178,0.000,0.000,0.000,6.885,0.000,0.000,0.000,1.319,0.000,0.000,0.000,0.000,0.000,0.000,0.000]
  Alt-Benders[1] (mw): LB=17.212163, Z₀(α*)=13.285513, intercept=11.767020
  Alt-Benders[2] (mw): LB=17.212163, Z₀(α*)=13.285513, intercept=11.767020
  Alt-Benders[3] (mw): LB=17.212163, Z₀(α*)=13.285513, intercept=11.767020
  Alt-Benders[4]: LB stagnated, break
  OMP re-solve: 0.000s

=== True-DRO Benders iter 12 ===
  OMP: t₀=17.212163, UB=22.403826, gap=2.32e-01, x=[0, 0, 0, 0, 1, 0, 0, 1, 0, 0, 0, 0, 0, 0, 0, 0, 0, 0, 0, 0, 0, 0, 0, 0, 0, 0, 0, 0, 0, 0] (0.000s)
  Sub: Z₀=19.016713 [TIME_LIMIT], α=[0.000,0.000,0.000,0.000,6.955,0.000,0.000,8.625,0.000,0.000,0.000,0.000,0.000,0.000,6.130,0.000,0.000,0.000,0.000,3.923,0.000,0.000,0.000,0.000,0.000,0.000,0.000,0.000,0.000,0.000]
  Iter 12: LB=17.212163  UB=19.040716  gap=9.60e-02
  Cut: intercept=-7.841342, π_x_range=[-223.0379, 14.5735]
  Mini-Benders[1] (mw): LB=17.349760, Z₀(α*)=16.783632, intercept=21.084354
  Mini-Benders[2] (mw): LB=17.349760, Z₀(α*)=16.783632, intercept=21.084354
  Mini-Benders[3] (mw): LB=17.349760, Z₀(α*)=16.783632, intercept=21.084354
  Mini-Benders[4]: LB stagnated, break
  α-step: Z₀=21.037529, α=[0.000,0.000,0.000,0.000,11.613,0.000,0.000,2.504,0.000,0.000,0.147,0.000,0.000,0.000,4.425,0.000,0.000,0.000,0.000,6.944,0.000,0.000,0.000,0.000,0.000,0.000,0.000,0.000,0.000,0.000]
  Alt-Benders[1] (mw): LB=17.765144, Z₀(α*)=20.076062, intercept=20.763595
  Alt-Benders[2] (mw): LB=18.216638, Z₀(α*)=0.483624, intercept=23.069420
  Alt-Benders[3] (mw): LB=18.216638, Z₀(α*)=0.483624, intercept=23.069420
  Alt-Benders[4] (mw): LB=18.216638, Z₀(α*)=0.483624, intercept=23.069420
  Alt-Benders[5]: LB stagnated, break
  OMP re-solve: 0.000s

=== True-DRO Benders iter 13 ===
  OMP: t₀=18.216638, UB=19.040716, gap=4.33e-02, x=[0, 0, 0, 0, 0, 0, 0, 1, 0, 0, 0, 0, 0, 0, 0, 0, 0, 0, 0, 1, 0, 0, 0, 0, 0, 0, 0, 0, 0, 0] (0.000s)
  Sub: Z₀=23.630147 [LOCAL], α=[0.000,0.000,0.000,0.000,0.042,0.000,0.000,14.480,0.000,0.000,0.000,0.000,0.000,0.000,1.738,0.000,0.000,0.000,0.000,9.373,0.000,0.000,0.000,0.000,0.000,0.000,0.000,0.000,0.000,0.000]
  Iter 13: LB=18.216638  UB=19.040716  gap=4.33e-02
  Cut: intercept=-577.108016, π_x_range=[-421.8280, 303.7508]
  Mini-Benders[1] (mw): LB=18.469419, Z₀(α*)=16.774667, intercept=12.362320
  Mini-Benders[2] (mw): LB=18.469419, Z₀(α*)=16.774667, intercept=12.362320
  Mini-Benders[3] (mw): LB=18.469419, Z₀(α*)=16.774667, intercept=12.362320
  Mini-Benders[4]: LB stagnated, break
  α-step: Z₀=30.792839, α=[0.000,0.000,0.000,0.000,0.000,0.000,0.000,15.334,0.000,0.000,0.000,0.000,0.000,0.000,6.838,0.000,0.000,0.000,3.461,0.000,0.000,0.000,0.000,0.000,0.000,0.000,0.000,0.000,0.000,0.000]
  Alt-Benders[1] (mw): LB=18.668240, Z₀(α*)=14.255555, intercept=23.920815
  Alt-Benders[2] (mw): LB=18.668240, Z₀(α*)=14.255555, intercept=23.920815
  Alt-Benders[3] (mw): LB=18.668240, Z₀(α*)=14.255555, intercept=23.920815
  Alt-Benders[4]: LB stagnated, break
  OMP re-solve: 0.000s

=== True-DRO Benders iter 14 ===
  OMP: t₀=18.668240, UB=19.040716, gap=1.96e-02, x=[0, 0, 0, 0, 0, 0, 0, 0, 0, 0, 0, 0, 0, 1, 1, 0, 0, 0, 0, 0, 0, 0, 0, 0, 0, 0, 0, 0, 0, 0] (0.001s)
  Sub: Z₀=30.034592 [LOCAL], α=[0.000,0.000,0.000,0.000,0.000,0.000,0.000,4.982,0.000,0.000,3.803,0.000,0.000,0.000,12.817,0.000,0.000,0.000,0.000,4.031,0.000,0.000,0.000,0.000,0.000,0.000,0.000,0.000,0.000,0.000]
  Iter 14: LB=18.668240  UB=19.040716  gap=1.96e-02
  Cut: intercept=-573.115746, π_x_range=[-421.8619, 304.6253]
  Mini-Benders[1] (mw): LB=18.864027, Z₀(α*)=26.570632, intercept=12.098011
  Mini-Benders[2] (mw): LB=18.886034, Z₀(α*)=9.707987, intercept=22.177119
  Mini-Benders[3] (mw): LB=18.886034, Z₀(α*)=9.707987, intercept=22.177119
  Mini-Benders[4] (mw): LB=18.886034, Z₀(α*)=9.707987, intercept=22.177119
  Mini-Benders[5]: LB stagnated, break
  α-step: Z₀=26.430922, α=[0.000,0.000,0.000,0.000,0.105,0.000,0.000,8.716,0.000,0.000,1.311,0.000,0.000,0.000,8.314,0.000,0.000,0.000,3.731,0.000,0.000,0.000,3.457,0.000,0.000,0.000,0.000,0.000,0.000,0.000]
  Alt-Benders[1] (mw): LB=19.016713, Z₀(α*)=11.446503, intercept=8.501373
  Alt-Benders[2] (mw): LB=19.016713, Z₀(α*)=11.446503, intercept=8.501373
  Alt-Benders[3] (mw): LB=19.016713, Z₀(α*)=11.446503, intercept=8.501373
  Alt-Benders[4]: LB stagnated, break
  OMP re-solve: 0.000s

=== True-DRO Benders iter 15 ===
  OMP: t₀=19.016713, UB=19.040716, gap=1.26e-03, x=[0, 0, 0, 0, 1, 0, 0, 1, 0, 0, 0, 0, 0, 0, 0, 0, 0, 0, 0, 0, 0, 0, 0, 0, 0, 0, 0, 0, 0, 0] (0.001s)
  Sub: Z₀=19.016713 [TIME_LIMIT], α=[0.000,0.000,0.000,0.000,6.955,0.000,0.000,8.625,0.000,0.000,0.000,0.000,0.000,0.000,6.130,0.000,0.000,0.000,0.000,3.923,0.000,0.000,0.000,0.000,0.000,0.000,0.000,0.000,0.000,0.000]
  Iter 15: LB=19.016713  UB=19.040716  gap=1.26e-03
  Cut: intercept=-7.841342, π_x_range=[-223.0379, 14.5735]
  Mini-Benders[1] (mw): LB=19.016713, Z₀(α*)=19.016711, intercept=8.093956
  Mini-Benders[2] (mw): LB=19.016709, Z₀(α*)=19.016711, intercept=8.093956
  Mini-Benders[3]: LB stagnated, break
  α-step: Z₀=19.016711, α=[0.000,0.000,0.000,0.000,0.000,0.000,0.000,12.548,0.000,0.000,0.000,0.000,0.000,0.000,13.085,0.000,0.000,0.000,0.000,0.000,0.000,0.000,0.000,0.000,0.000,0.000,0.000,0.000,0.000,0.000]
  Alt-Benders[1] (mw): LB=19.016711, Z₀(α*)=19.016711, intercept=8.093954
  Alt-Benders[2] (mw): LB=19.016709, Z₀(α*)=19.016711, intercept=8.093954
  Alt-Benders[3]: LB stagnated, break
  OMP re-solve: 0.000s

=== True-DRO Benders iter 16 ===
  OMP: t₀=19.016709, UB=19.040716, gap=1.26e-03, x=[0, 0, 0, 0, 1, 0, 0, 1, 0, 0, 0, 0, 0, 0, 0, 0, 0, 0, 0, 0, 0, 0, 0, 0, 0, 0, 0, 0, 0, 0] (0.001s)
  Sub: Z₀=18.733723 [LOCAL], α=[0.000,0.000,0.000,0.000,6.158,0.000,0.000,9.789,0.000,0.000,0.000,0.000,0.000,0.000,6.927,0.000,0.000,0.000,0.000,2.759,0.000,0.000,0.000,0.000,0.000,0.000,0.000,0.000,0.000,0.000]
  Iter 16: LB=19.016709  UB=19.040716  gap=1.26e-03
  Cut: intercept=-573.830646, π_x_range=[-420.5627, 297.7292]
  Mini-Benders[1] (mw): LB=19.016709, Z₀(α*)=19.016711, intercept=8.093955
  Mini-Benders[2] (mw): LB=19.016709, Z₀(α*)=19.016711, intercept=8.093955
  Mini-Benders[3]: LB stagnated, break
  α-step: Z₀=19.016711, α=[0.000,0.000,0.000,0.000,0.000,0.000,0.000,12.548,0.000,0.000,0.000,0.000,0.000,0.000,13.085,0.000,0.000,0.000,0.000,0.000,0.000,0.000,0.000,0.000,0.000,0.000,0.000,0.000,0.000,0.000]
  Alt-Benders[1] (mw): LB=19.016709, Z₀(α*)=19.016711, intercept=8.093954
  Alt-Benders[2] (mw): LB=19.016711, Z₀(α*)=19.016711, intercept=8.093954
  Alt-Benders[3] (mw): LB=19.016711, Z₀(α*)=19.016711, intercept=8.093954
  Alt-Benders[4] (mw): LB=19.016709, Z₀(α*)=19.016711, intercept=8.093954
  Alt-Benders[5] (mw): LB=19.016711, Z₀(α*)=19.016711, intercept=8.093954
  OMP re-solve: 0.097s

=== True-DRO Benders iter 17 ===
  OMP: t₀=19.016709, UB=19.040716, gap=1.26e-03, x=[0, 0, 0, 0, 1, 0, 0, 1, 0, 0, 0, 0, 0, 0, 0, 0, 0, 0, 0, 0, 0, 0, 0, 0, 0, 0, 0, 0, 0, 0] (0.000s)
  Sub: Z₀=18.733723 [LOCAL], α=[0.000,0.000,0.000,0.000,6.158,0.000,0.000,9.789,0.000,0.000,0.000,0.000,0.000,0.000,6.927,0.000,0.000,0.000,0.000,2.759,0.000,0.000,0.000,0.000,0.000,0.000,0.000,0.000,0.000,0.000]
  Iter 17: LB=19.016709  UB=19.040716  gap=1.26e-03
  Cut: intercept=-573.830646, π_x_range=[-420.5627, 297.7292]
  Mini-Benders[1] (mw): LB=19.016709, Z₀(α*)=19.016711, intercept=8.093955
  Mini-Benders[2] (mw): LB=19.016709, Z₀(α*)=19.016711, intercept=8.093955
  Mini-Benders[3]: LB stagnated, break
  α-step: Z₀=19.016711, α=[0.000,0.000,0.000,0.000,0.000,0.000,0.000,12.548,0.000,0.000,0.000,0.000,0.000,0.000,13.085,0.000,0.000,0.000,0.000,0.000,0.000,0.000,0.000,0.000,0.000,0.000,0.000,0.000,0.000,0.000]
  Alt-Benders[1] (mw): LB=19.016709, Z₀(α*)=19.016711, intercept=8.093954
  Alt-Benders[2] (mw): LB=19.016711, Z₀(α*)=19.016711, intercept=8.093954
  Alt-Benders[3] (mw): LB=19.016711, Z₀(α*)=19.016711, intercept=8.093954
  Alt-Benders[4] (mw): LB=19.016709, Z₀(α*)=19.016711, intercept=8.093954
  Alt-Benders[5]: LB stagnated, break
  OMP re-solve: 0.000s

=== True-DRO Benders iter 18 ===
  OMP: t₀=19.016709, UB=19.040716, gap=1.26e-03, x=[0, 0, 0, 0, 1, 0, 0, 1, 0, 0, 0, 0, 0, 0, 0, 0, 0, 0, 0, 0, 0, 0, 0, 0, 0, 0, 0, 0, 0, 0] (0.001s)
  → Boost: time limit off + MIPGap=0.5% (same x + prev TIME_LIMIT)
  Sub: Z₀=19.016711, α=[0.000,0.000,0.000,0.000,0.000,0.000,0.000,12.548,0.000,0.000,0.000,0.000,0.000,0.000,13.085,0.000,0.000,0.000,0.000,0.000,0.000,0.000,0.000,0.000,0.000,0.000,0.000,0.000,0.000,0.000]
  Iter 18: LB=19.016709  UB=19.016711  gap=1.07e-07
True-DRO Benders converged at iter 18 (gap=1.07e-07)
  Wall time: 149.01 sec
  OMP  time: mean=0.056s, median=0.062s, max=0.122s
  Sub  time (exact): mean=11.914s, median=10.695s, q90=24.106s, max=25.929s (n=4/18)

----------------------------------------
True-DRO: status=Optimal, Z₀=19.016711, iters=18, time=149.01s
  LB=19.016709, UB=19.016711, gap=1.07e-07
  x* = [0, 0, 0, 0, 1, 0, 0, 0, 0, 0, 0, 0, 0, 0, 0, 0, 0, 0, 1, 0, 0, 0, 0, 0, 0, 0, 0, 0, 0, 0]
============================================================
Primal Recovery: x* → α* → (h*, λ*, ψ⁰*)
============================================================
  x* = [0, 0, 0, 0, 1, 0, 0, 0, 0, 0, 0, 0, 0, 0, 0, 0, 0, 0, 1, 0, 0, 0, 0, 0, 0, 0, 0, 0, 0, 0]
  α* = [0.0000, 0.0000, 0.0000, 0.0000, 8.9623, 0.0000, 0.0000, 0.1788, 0.0000, 0.0000, 1.8322, 0.0000, 0.0000, 0.0000, 7.8173, 0.0000, 0.0000, 0.0000, 6.8427, 0.0000, 0.0000, 0.0000, 0.0000, 0.0000, 0.0000, 0.0000, 0.0000, 0.0000, 0.0000, 0.0000]

  Piece-F obj = 0.000000
  λ*   = -0.000000
  Σh*  = 0.000000  (budget: λw = -0.000000)

  h* (nonzero arcs):
  ψ⁰* (nonzero arcs):

  Per-scenario sink flow ỹ_ts:
    s=1: ỹ_ts=-0.000000
    s=2: ỹ_ts=-0.000000
    s=3: ỹ_ts=-0.000000
    s=4: ỹ_ts=-0.000000
    s=5: ỹ_ts=-0.000000
    s=6: ỹ_ts=-0.000000
    s=7: ỹ_ts=-0.000000
    s=8: ỹ_ts=-0.000000
    s=9: ỹ_ts=-0.000000
    s=10: ỹ_ts=-0.000000
    s=11: ỹ_ts=-0.000000
    s=12: ỹ_ts=-0.000000
    s=13: ỹ_ts=-0.000000
    s=14: ỹ_ts=-0.000000
    s=15: ỹ_ts=-0.000000
    s=16: ỹ_ts=-0.000000
    s=17: ỹ_ts=-0.000000
    s=18: ỹ_ts=-0.000000
    s=19: ỹ_ts=-0.000000
    s=20: ỹ_ts=-0.000000

  Z₀(Benders) = 19.016711
  Piece-F(recovered) = 0.000000

Finished: 2026-04-18T01:27:36.647
